(set-info :smt-lib-version 2.6)
(set-logic QF_LRA)
(set-info :source |
The Formal Verification of a Reintegration Protocol. Author: Lee Pike. Website: http://www.cs.indiana.edu/~lepike/pub_pages/emsoft.html.

This benchmark was automatically translated into SMT-LIB format from
CVC format using CVC Lite
|)
(set-info :category "industrial")
(set-info :status unsat)
(declare-fun x_0 () Bool)
(declare-fun x_1 () Bool)
(declare-fun x_2 () Real)
(declare-fun x_3 () Real)
(declare-fun x_4 () Bool)
(declare-fun x_5 () Bool)
(declare-fun x_6 () Real)
(declare-fun x_7 () Real)
(declare-fun x_8 () Real)
(declare-fun x_9 () Real)
(declare-fun x_10 () Bool)
(declare-fun x_11 () Bool)
(declare-fun x_12 () Real)
(declare-fun x_13 () Bool)
(declare-fun x_14 () Bool)
(declare-fun x_15 () Bool)
(declare-fun x_16 () Bool)
(declare-fun x_17 () Bool)
(declare-fun x_18 () Bool)
(declare-fun x_19 () Bool)
(declare-fun x_20 () Bool)
(declare-fun x_21 () Real)
(declare-fun x_22 () Real)
(declare-fun x_23 () Real)
(declare-fun x_24 () Real)
(declare-fun x_25 () Real)
(declare-fun x_26 () Real)
(declare-fun x_27 () Real)
(declare-fun x_28 () Bool)
(declare-fun x_29 () Bool)
(declare-fun x_30 () Bool)
(declare-fun x_31 () Bool)
(declare-fun x_32 () Bool)
(declare-fun x_33 () Bool)
(declare-fun x_34 () Bool)
(declare-fun x_35 () Bool)
(declare-fun x_36 () Bool)
(declare-fun x_37 () Bool)
(declare-fun x_38 () Real)
(declare-fun x_39 () Real)
(declare-fun x_40 () Real)
(declare-fun x_41 () Real)
(declare-fun x_42 () Real)
(declare-fun x_43 () Real)
(declare-fun x_44 () Real)
(declare-fun x_45 () Real)
(declare-fun x_46 () Real)
(declare-fun x_47 () Real)
(declare-fun x_48 () Real)
(declare-fun x_49 () Real)
(declare-fun x_50 () Real)
(declare-fun x_51 () Real)
(declare-fun x_52 () Real)
(declare-fun x_53 () Bool)
(declare-fun x_54 () Real)
(declare-fun x_55 () Real)
(declare-fun x_56 () Real)
(assert (let ((?v_28 (+ x_6 x_7)) (?v_70 (<= x_8 x_9)) (?v_52 (= x_10 x_11)) (?v_10 (= x_3 0)) (?v_14 (< x_8 x_12)) (?v_37 (= x_9 x_8)) (?v_59 (= x_3 2)) (?v_61 (= x_13 x_14)) (?v_62 (and (= x_4 x_0) (= x_5 x_1))) (?v_50 (= x_15 x_16)) (?v_51 (and (= x_17 x_18) (= x_19 x_20))) (?v_63 (= x_21 x_22)) (?v_64 (and (= x_23 x_24) (= x_25 x_26))) (?v_24 (= x_27 x_12)) (?v_49 (= x_28 x_29)) (?v_47 (= x_30 x_31)) (?v_48 (and (= x_32 x_33) (= x_34 x_35))) (?v_65 (= x_36 x_37)) (?v_71 (- x_38 x_6)) (?v_25 (= x_3 1)) (?v_44 (+ x_7 x_6)) (?v_40 (<= x_39 x_9))) (let ((?v_46 (= x_13 (or x_14 (and ?v_40 x_31)))) (?v_30 (<= x_42 ?v_28)) (?v_32 (<= x_43 ?v_28)) (?v_29 (<= x_42 x_7)) (?v_31 (<= x_43 x_7)) (?v_1 (not x_0)) (?v_53 (< x_42 x_8)) (?v_54 (= x_9 x_42)) (?v_2 (not x_1)) (?v_55 (< x_43 x_8)) (?v_56 (= x_9 x_43)) (?v_17 (not x_14)) (?v_72 (not ?v_70)) (?v_34 (not x_33)) (?v_35 (not x_35)) (?v_36 (not x_31))) (let ((?v_26 (not ?v_29))) (let ((?v_38 (and ?v_26 (<= x_42 x_9))) (?v_27 (not ?v_31))) (let ((?v_39 (and ?v_27 (<= x_43 x_9)))) (let ((?v_45 (and (= x_4 (or x_0 (and ?v_38 x_33))) (= x_5 (or x_1 (and ?v_39 x_35))))) (?v_33 (<= x_39 ?v_28)) (?v_57 (< x_39 x_8)) (?v_58 (= x_9 x_39)) (?v_41 (not ?v_30)) (?v_42 (not ?v_32)) (?v_5 (and (not (<= x_39 x_7)) ?v_40)) (?v_6 (and (not (<= x_44 x_7)) (<= x_44 x_9)))) (let ((?v_43 (not ?v_33)) (?v_23 (= x_21 0)) (?v_13 (= x_21 3)) (?v_19 (= x_23 0)) (?v_11 (= x_23 3)) (?v_21 (= x_25 0)) (?v_12 (= x_25 3)) (?v_0 (and (not x_4) (not x_5))) (?v_67 (= x_2 1))) (let ((?v_69 (not ?v_67)) (?v_3 (and ?v_1 ?v_2)) (?v_66 (= x_2 0))) (let ((?v_68 (not ?v_66)) (?v_7 (and (not (<= x_47 x_7)) (<= x_47 x_9))) (?v_15 (= x_23 (ite ?v_1 (ite (and ?v_38 (< x_24 3)) (+ x_24 1) x_24) x_24))) (?v_16 (= x_25 (ite ?v_2 (ite (and ?v_39 (< x_26 3)) (+ x_26 1) x_26) x_26))) (?v_18 (or x_0 ?v_11)) (?v_20 (or x_1 ?v_12)) (?v_22 (or x_14 ?v_13)) (?v_4 (ite ?v_5 2 1)) (?v_8 (ite ?v_5 3 2)) (?v_9 (ite ?v_5 1 0)) (?v_60 (<= (ite x_16 (ite x_20 (ite x_18 3 2) x_40) (ite x_20 x_40 (ite x_18 1 0))) (* (* (ite x_14 (ite x_1 (ite x_0 0 1) x_41) (ite x_1 x_41 (ite x_0 2 3))) 1) (/ 1 2))))) (and (and (and (and (and (and (and (and (and (and (and (and (and (and (and (and (and (and (and (and (and (and (and (and (and (and (and (and (and (and (and (and (and (and (and (and (and (and (and (and (and (and (and (and (and (and (and (and (and (and (and (and (and (and (and (and (and (and (and (and (<= x_3 2) (>= x_3 0)) (<= x_2 2)) (>= x_2 0)) (> x_6 0)) (>= x_6 0)) (>= x_7 0)) (>= x_8 0)) (>= x_9 0)) (>= x_12 0)) (or (or (or ?v_23 (= x_21 1)) (= x_21 2)) ?v_13)) (not (< x_21 0))) (<= x_21 3)) (or (or (or (= x_22 0) (= x_22 1)) (= x_22 2)) (= x_22 3))) (not (< x_22 0))) (<= x_22 3)) (or (or (or ?v_19 (= x_23 1)) (= x_23 2)) ?v_11)) (not (< x_23 0))) (<= x_23 3)) (or (or (or (= x_24 0) (= x_24 1)) (= x_24 2)) (= x_24 3))) (not (< x_24 0))) (<= x_24 3)) (or (or (or ?v_21 (= x_25 1)) (= x_25 2)) ?v_12)) (not (< x_25 0))) (<= x_25 3)) (or (or (or (= x_26 0) (= x_26 1)) (= x_26 2)) (= x_26 3))) (not (< x_26 0))) (<= x_26 3)) (>= x_27 0)) (>= x_38 0)) (>= x_39 0)) (>= x_42 0)) (>= x_43 0)) (>= x_44 0)) (>= x_47 0)) (>= x_50 0)) (>= x_51 0)) (not (<= x_52 (* x_6 3)))) (>= x_52 0)) (>= x_54 0)) (>= x_55 0)) (>= x_56 0)) ?v_1) ?v_2) (or (not ?v_25) ?v_0)) (or (not ?v_10) ?v_0)) (or ?v_69 ?v_3)) (or ?v_68 ?v_3)) (= x_40 (ite x_18 2 1))) (= x_41 (ite x_0 1 2))) (= x_45 ?v_4)) (= x_46 ?v_4)) (= x_48 (+ (ite ?v_7 (ite ?v_6 ?v_8 x_45) (ite ?v_6 x_45 ?v_9)) x_22))) (= x_49 (+ (ite ?v_7 (ite ?v_6 ?v_8 x_46) (ite ?v_6 x_46 ?v_9)) x_22))) (or (or (and (and (and (and (and (and (or (and (and (and (and (and (and (and (and (and (and ?v_10 ?v_14) ?v_37) ?v_15) ?v_16) (= x_21 (ite ?v_17 (ite (not (< x_48 3)) 3 x_48) x_22))) (= x_4 ?v_18)) (= x_5 ?v_20)) (= x_13 ?v_22)) ?v_49) ?v_24) (and (and (and (and (and (and (and (and (and (and ?v_10 (not ?v_14)) x_28) (= x_9 x_12)) ?v_15) ?v_16) (= x_21 (ite ?v_17 (ite (not (< x_49 3)) 3 x_49) x_22))) (= x_4 (or ?v_18 ?v_19))) (= x_5 (or ?v_20 ?v_21))) (= x_13 (or ?v_22 ?v_23))) ?v_24)) ?v_47) ?v_48) ?v_65) ?v_50) ?v_51) ?v_52) (and (and (and (and (and (and (and (or (and (and (and (and (and (and (and (and (and (and (and ?v_25 (or (or (and (and (and ?v_26 ?v_1) ?v_34) ?v_30) (and (and (and ?v_27 ?v_2) ?v_35) ?v_32)) (and (and ?v_17 ?v_36) ?v_33))) (not x_36)) (or (or (or (or ?v_29 ?v_41) x_33) x_0) (not (< x_9 x_42)))) (or (or (or (or ?v_31 ?v_42) x_35) x_1) (not (< x_9 x_43)))) (or (or (or ?v_43 x_31) x_14) (not (< x_9 x_39)))) (or (or (or (and (and (and (and ?v_34 ?v_1) ?v_30) ?v_53) ?v_54) (and (and (and (and ?v_35 ?v_2) ?v_32) ?v_55) ?v_56)) (and (and (and (and ?v_36 ?v_17) ?v_33) ?v_57) ?v_58)) (and (< x_8 ?v_44) ?v_37))) (= x_32 (or x_33 ?v_38))) (= x_34 (or x_35 ?v_39))) (= x_30 (or x_31 ?v_40))) ?v_45) ?v_46) (and (and (and (and (and (and (and (and (and ?v_25 (or (or (or ?v_29 x_33) x_0) ?v_41)) (or (or (or ?v_31 x_35) x_1) ?v_42)) (or (or x_31 x_14) ?v_43)) x_36) (= x_9 ?v_44)) ?v_45) ?v_46) ?v_47) ?v_48)) ?v_63) ?v_64) ?v_24) ?v_49) ?v_50) ?v_51) ?v_52)) (and (and (and (and (and (and (and (or (and (and (and (and (and (and (and (and (and (and (and ?v_59 ?v_60) (not x_10)) (or (or (or ?v_29 x_18) x_0) (<= x_9 x_42))) (or (or (or ?v_31 x_20) x_1) (<= x_9 x_43))) (or (or x_16 x_14) (<= x_9 x_39))) (or (or (or (and (and (and (and (not x_18) ?v_1) (< x_7 x_42)) ?v_53) ?v_54) (and (and (and (and (not x_20) ?v_2) (< x_7 x_43)) ?v_55) ?v_56)) (and (and (and (not x_16) ?v_17) ?v_57) ?v_58)) ?v_37)) (= x_17 (or x_18 (= x_42 x_9)))) (= x_19 (or x_20 (= x_43 x_9)))) (= x_15 (or x_16 (= x_39 x_9)))) ?v_61) ?v_62) (and (and (and (and (and (and (and ?v_59 (not ?v_60)) x_10) ?v_61) ?v_62) (= x_9 x_7)) ?v_50) ?v_51)) ?v_63) ?v_64) ?v_24) ?v_49) ?v_47) ?v_48) ?v_65))) (or (or (and ?v_66 (= x_3 (ite (not x_29) x_2 1))) (and ?v_67 (= x_3 (ite (not x_37) x_2 2)))) (and (and ?v_68 ?v_69) (= x_3 x_2)))) (or (and (and ?v_70 (not (<= x_38 x_50))) (not (<= x_50 ?v_71))) (and ?v_72 (= x_50 x_42)))) (or (and (and ?v_70 (not (<= x_38 x_51))) (not (<= x_51 ?v_71))) (and ?v_72 (= x_51 x_43)))) (or (and (and ?v_70 (= x_38 (+ x_8 x_52))) x_53) (and (and ?v_72 (not x_53)) (= x_38 x_8)))) (or (and (and (and (and ?v_40 (not (<= x_54 x_9))) (not (<= x_55 x_9))) (< x_54 x_55)) (< x_55 x_56)) (and (and (and (not ?v_40) (= x_54 x_39)) (= x_55 x_44)) (= x_56 x_47)))) (or x_4 x_5))))))))))))
(check-sat)
(exit)
